(set-logic QF_LRA)
(declare-fun X0 () Real )
(declare-fun Y0 () Real )
(declare-fun X1 () Real )
(declare-fun Y1 () Real )
(declare-fun X2 () Real )
(declare-fun Y2 () Real )
(declare-fun X3 () Real )
(declare-fun Y3 () Real )
(declare-fun X4 () Real )
(declare-fun Y4 () Real )
(declare-fun X5 () Real )
(declare-fun Y5 () Real )
(declare-fun X6 () Real )
(declare-fun Y6 () Real )
(declare-fun X7 () Real )
(declare-fun Y7 () Real )
(declare-fun X8 () Real )
(declare-fun Y8 () Real )
(declare-fun Z () Real )
(declare-fun k () Real )
(assert (let
(( $goal (>= Z k) ))
(let
((
$phi ( and 
( or ( <= ( + X0 18 ) X1 )  ( <= ( + X1 55 ) X0 )  ( <= ( + Y0 3 ) Y1 )  ( <= ( + Y1 54 ) Y0 )  )
( or ( <= ( + X0 18 ) X2 )  ( <= ( + X2 83 ) X0 )  ( <= ( + Y0 3 ) Y2 )  ( <= ( + Y2 58 ) Y0 )  )
( or ( <= ( + X0 18 ) X3 )  ( <= ( + X3 92 ) X0 )  ( <= ( + Y0 3 ) Y3 )  ( <= ( + Y3 9 ) Y0 )  )
( or ( <= ( + X0 18 ) X4 )  ( <= ( + X4 36 ) X0 )  ( <= ( + Y0 3 ) Y4 )  ( <= ( + Y4 32 ) Y0 )  )
( or ( <= ( + X0 18 ) X5 )  ( <= ( + X5 93 ) X0 )  ( <= ( + Y0 3 ) Y5 )  ( <= ( + Y5 59 ) Y0 )  )
( or ( <= ( + X0 18 ) X6 )  ( <= ( + X6 18 ) X0 )  ( <= ( + Y0 3 ) Y6 )  ( <= ( + Y6 8 ) Y0 )  )
( or ( <= ( + X0 18 ) X7 )  ( <= ( + X7 15 ) X0 )  ( <= ( + Y0 3 ) Y7 )  ( <= ( + Y7 53 ) Y0 )  )
( or ( <= ( + X0 18 ) X8 )  ( <= ( + X8 47 ) X0 )  ( <= ( + Y0 3 ) Y8 )  ( <= ( + Y8 30 ) Y0 )  )
( or ( <= ( + X1 55 ) X2 )  ( <= ( + X2 83 ) X1 )  ( <= ( + Y1 54 ) Y2 )  ( <= ( + Y2 58 ) Y1 )  )
( or ( <= ( + X1 55 ) X3 )  ( <= ( + X3 92 ) X1 )  ( <= ( + Y1 54 ) Y3 )  ( <= ( + Y3 9 ) Y1 )  )
( or ( <= ( + X1 55 ) X4 )  ( <= ( + X4 36 ) X1 )  ( <= ( + Y1 54 ) Y4 )  ( <= ( + Y4 32 ) Y1 )  )
( or ( <= ( + X1 55 ) X5 )  ( <= ( + X5 93 ) X1 )  ( <= ( + Y1 54 ) Y5 )  ( <= ( + Y5 59 ) Y1 )  )
( or ( <= ( + X1 55 ) X6 )  ( <= ( + X6 18 ) X1 )  ( <= ( + Y1 54 ) Y6 )  ( <= ( + Y6 8 ) Y1 )  )
( or ( <= ( + X1 55 ) X7 )  ( <= ( + X7 15 ) X1 )  ( <= ( + Y1 54 ) Y7 )  ( <= ( + Y7 53 ) Y1 )  )
( or ( <= ( + X1 55 ) X8 )  ( <= ( + X8 47 ) X1 )  ( <= ( + Y1 54 ) Y8 )  ( <= ( + Y8 30 ) Y1 )  )
( or ( <= ( + X2 83 ) X3 )  ( <= ( + X3 92 ) X2 )  ( <= ( + Y2 58 ) Y3 )  ( <= ( + Y3 9 ) Y2 )  )
( or ( <= ( + X2 83 ) X4 )  ( <= ( + X4 36 ) X2 )  ( <= ( + Y2 58 ) Y4 )  ( <= ( + Y4 32 ) Y2 )  )
( or ( <= ( + X2 83 ) X5 )  ( <= ( + X5 93 ) X2 )  ( <= ( + Y2 58 ) Y5 )  ( <= ( + Y5 59 ) Y2 )  )
( or ( <= ( + X2 83 ) X6 )  ( <= ( + X6 18 ) X2 )  ( <= ( + Y2 58 ) Y6 )  ( <= ( + Y6 8 ) Y2 )  )
( or ( <= ( + X2 83 ) X7 )  ( <= ( + X7 15 ) X2 )  ( <= ( + Y2 58 ) Y7 )  ( <= ( + Y7 53 ) Y2 )  )
( or ( <= ( + X2 83 ) X8 )  ( <= ( + X8 47 ) X2 )  ( <= ( + Y2 58 ) Y8 )  ( <= ( + Y8 30 ) Y2 )  )
( or ( <= ( + X3 92 ) X4 )  ( <= ( + X4 36 ) X3 )  ( <= ( + Y3 9 ) Y4 )  ( <= ( + Y4 32 ) Y3 )  )
( or ( <= ( + X3 92 ) X5 )  ( <= ( + X5 93 ) X3 )  ( <= ( + Y3 9 ) Y5 )  ( <= ( + Y5 59 ) Y3 )  )
( or ( <= ( + X3 92 ) X6 )  ( <= ( + X6 18 ) X3 )  ( <= ( + Y3 9 ) Y6 )  ( <= ( + Y6 8 ) Y3 )  )
( or ( <= ( + X3 92 ) X7 )  ( <= ( + X7 15 ) X3 )  ( <= ( + Y3 9 ) Y7 )  ( <= ( + Y7 53 ) Y3 )  )
( or ( <= ( + X3 92 ) X8 )  ( <= ( + X8 47 ) X3 )  ( <= ( + Y3 9 ) Y8 )  ( <= ( + Y8 30 ) Y3 )  )
( or ( <= ( + X4 36 ) X5 )  ( <= ( + X5 93 ) X4 )  ( <= ( + Y4 32 ) Y5 )  ( <= ( + Y5 59 ) Y4 )  )
( or ( <= ( + X4 36 ) X6 )  ( <= ( + X6 18 ) X4 )  ( <= ( + Y4 32 ) Y6 )  ( <= ( + Y6 8 ) Y4 )  )
( or ( <= ( + X4 36 ) X7 )  ( <= ( + X7 15 ) X4 )  ( <= ( + Y4 32 ) Y7 )  ( <= ( + Y7 53 ) Y4 )  )
( or ( <= ( + X4 36 ) X8 )  ( <= ( + X8 47 ) X4 )  ( <= ( + Y4 32 ) Y8 )  ( <= ( + Y8 30 ) Y4 )  )
( or ( <= ( + X5 93 ) X6 )  ( <= ( + X6 18 ) X5 )  ( <= ( + Y5 59 ) Y6 )  ( <= ( + Y6 8 ) Y5 )  )
( or ( <= ( + X5 93 ) X7 )  ( <= ( + X7 15 ) X5 )  ( <= ( + Y5 59 ) Y7 )  ( <= ( + Y7 53 ) Y5 )  )
( or ( <= ( + X5 93 ) X8 )  ( <= ( + X8 47 ) X5 )  ( <= ( + Y5 59 ) Y8 )  ( <= ( + Y8 30 ) Y5 )  )
( or ( <= ( + X6 18 ) X7 )  ( <= ( + X7 15 ) X6 )  ( <= ( + Y6 8 ) Y7 )  ( <= ( + Y7 53 ) Y6 )  )
( or ( <= ( + X6 18 ) X8 )  ( <= ( + X8 47 ) X6 )  ( <= ( + Y6 8 ) Y8 )  ( <= ( + Y8 30 ) Y6 )  )
( or ( <= ( + X7 15 ) X8 )  ( <= ( + X8 47 ) X7 )  ( <= ( + Y7 53 ) Y8 )  ( <= ( + Y8 30 ) Y7 )  )
( >= X0 0)
( <= ( + X0 18) Z)
( >= Y0 0)
( <= ( + Y0 3 ) 100)
( >= X1 0)
( <= ( + X1 55) Z)
( >= Y1 0)
( <= ( + Y1 54 ) 100)
( >= X2 0)
( <= ( + X2 83) Z)
( >= Y2 0)
( <= ( + Y2 58 ) 100)
( >= X3 0)
( <= ( + X3 92) Z)
( >= Y3 0)
( <= ( + Y3 9 ) 100)
( >= X4 0)
( <= ( + X4 36) Z)
( >= Y4 0)
( <= ( + Y4 32 ) 100)
( >= X5 0)
( <= ( + X5 93) Z)
( >= Y5 0)
( <= ( + Y5 59 ) 100)
( >= X6 0)
( <= ( + X6 18) Z)
( >= Y6 0)
( <= ( + Y6 8 ) 100)
( >= X7 0)
( <= ( + X7 15) Z)
( >= Y7 0)
( <= ( + Y7 53 ) 100)
( >= X8 0)
( <= ( + X8 47) Z)
( >= Y8 0)
( <= ( + Y8 30 ) 100)
) )
)(=> $phi $goal))))